solution status: optimal solution found
objective value:                    -115099.775582467
alpha#1#1                                       27600 	(obj:0)
alpha#1#2                                  11418.0817 	(obj:0)
alpha#1#3                                 23439.10255 	(obj:0)
alpha#1#4                                       27600 	(obj:0)
alpha#1#5                                       27600 	(obj:0)
alpha#3#1                            4160.89745000001 	(obj:0)
alpha#4#1                                       55200 	(obj:0)
alpha#4#2                                  39018.0817 	(obj:0)
alpha#4#3                                 51039.10255 	(obj:0)
alpha#4#4                                       55200 	(obj:0)
alpha#4#5                                       55200 	(obj:0)
alpha#5#1                                       27600 	(obj:0)
alpha#5#2                                  11418.0817 	(obj:0)
alpha#5#3                                 23439.10255 	(obj:0)
alpha#5#4                                       27600 	(obj:0)
alpha#5#5                                       27600 	(obj:0)
alpha#7#1                                  4160.89745 	(obj:0)
alpha#8#1                                  4160.89745 	(obj:0)
alpha#10#1                           4160.89745000001 	(obj:0)
alpha#11#1                                      55200 	(obj:0)
alpha#11#2                                 39018.0817 	(obj:0)
alpha#11#3                                51039.10255 	(obj:0)
alpha#11#4                                      55200 	(obj:0)
alpha#11#5                                      55200 	(obj:0)
alpha#12#1                                      27600 	(obj:0)
alpha#12#2                                 11418.0817 	(obj:0)
alpha#12#3                                23439.10255 	(obj:0)
alpha#12#4                                      27600 	(obj:0)
alpha#12#5                                      27600 	(obj:0)
alpha#14#1                                 4160.89745 	(obj:0)
alpha#15#1                                 4160.89745 	(obj:0)
alpha#17#1                           4160.89745000001 	(obj:0)
alpha#18#1                                      55200 	(obj:0)
alpha#18#2                                 39018.0817 	(obj:0)
alpha#18#3                                51039.10255 	(obj:0)
alpha#18#4                                      55200 	(obj:0)
alpha#18#5                                      55200 	(obj:0)
alpha#19#1                                      27600 	(obj:0)
alpha#19#2                                 11418.0817 	(obj:0)
alpha#19#3                                23439.10255 	(obj:0)
alpha#19#4                                      27600 	(obj:0)
alpha#19#5                                      27600 	(obj:0)
alpha#21#1                                 4160.89745 	(obj:0)
alpha#22#1                                 4160.89745 	(obj:0)
alpha#24#1                           4160.89745000001 	(obj:0)
alpha#25#1                                      55200 	(obj:0)
alpha#25#2                                 39018.0817 	(obj:0)
alpha#25#3                                51039.10255 	(obj:0)
alpha#25#4                                      55200 	(obj:0)
alpha#25#5                                      55200 	(obj:0)
alpha#26#1                                      27600 	(obj:0)
alpha#26#2                                 11418.0817 	(obj:0)
alpha#26#3                                23439.10255 	(obj:0)
alpha#26#4                                      27600 	(obj:0)
alpha#26#5                                      27600 	(obj:0)
alpha#28#1                                 4160.89745 	(obj:0)
alpha#29#1                                 4160.89745 	(obj:0)
lambda#1#1                             -0.00128019301 	(obj:546128)
lambda#1#2                       -0.00141888959166667 	(obj:79981)
lambda#1#3                             -0.00312019301 	(obj:64309)
lambda#1#4                             -0.00220019301 	(obj:0)
lambda#1#5                             -0.00128019301 	(obj:0)
lambda#1#6                       -0.00141888959166667 	(obj:216645)
lambda#1#7                       -0.00141888959166667 	(obj:82959)
lambda#1#8                             -0.00128019301 	(obj:107134)
lambda#1#9                       -0.00141888959166667 	(obj:184589)
lambda#1#10                            -0.00312019301 	(obj:197570)
lambda#1#11                            -0.00220019301 	(obj:0)
lambda#1#12                            -0.00128019301 	(obj:0)
lambda#1#13                      -0.00141888959166667 	(obj:166341)
lambda#1#14                      -0.00141888959166667 	(obj:149126)
lambda#1#15                            -0.00128019301 	(obj:192670)
lambda#1#16                      -0.00141888959166667 	(obj:109134)
lambda#1#17                            -0.00312019301 	(obj:147634)
lambda#1#18                            -0.00220019301 	(obj:0)
lambda#1#19                            -0.00128019301 	(obj:0)
lambda#1#20                      -0.00141888959166667 	(obj:296362)
lambda#1#21                      -0.00141888959166667 	(obj:61239)
lambda#1#22                            -0.00128019301 	(obj:153695)
lambda#1#23                      -0.00141888959166667 	(obj:175549)
lambda#1#24                            -0.00312019301 	(obj:121701)
lambda#1#25                            -0.00220019301 	(obj:0)
lambda#1#26                            -0.00128019301 	(obj:0)
lambda#1#27                      -0.00141888959166667 	(obj:251729)
lambda#1#28                      -0.00141888959166667 	(obj:141891)
lambda#1#29                            -0.00128019301 	(obj:118796)
lambda#1#30                                  -0.00092 	(obj:82907)
lambda#2#1                       -0.00122246168166667 	(obj:719892)
lambda#2#2                       -0.00122246168166667 	(obj:1592810)
lambda#2#3                       -0.00306246168166667 	(obj:1945552)
lambda#2#4                       -0.00214246168166667 	(obj:0)
lambda#2#5                       -0.00122246168166667 	(obj:0)
lambda#2#6                       -0.00122246168166667 	(obj:2796026)
lambda#2#7                       -0.00122246168166667 	(obj:2650654)
lambda#2#8                       -0.00122246168166667 	(obj:2692812)
lambda#2#9                       -0.00122246168166667 	(obj:3007916)
lambda#2#10                      -0.00306246168166667 	(obj:4123096)
lambda#2#11                      -0.00214246168166667 	(obj:0)
lambda#2#12                      -0.00122246168166667 	(obj:0)
lambda#2#13                      -0.00122246168166667 	(obj:2547704)
lambda#2#14                      -0.00122246168166667 	(obj:1514431)
lambda#2#15                      -0.00122246168166667 	(obj:1309662)
lambda#2#16                      -0.00122246168166667 	(obj:963921)
lambda#2#17                      -0.00306246168166667 	(obj:1222885)
lambda#2#18                      -0.00214246168166667 	(obj:0)
lambda#2#19                      -0.00122246168166667 	(obj:0)
lambda#2#20                      -0.00122246168166667 	(obj:1251080)
lambda#2#21                      -0.00122246168166667 	(obj:715675)
lambda#2#22                      -0.00122246168166667 	(obj:501661)
lambda#2#23                      -0.00122246168166667 	(obj:793767)
lambda#2#24                      -0.00306246168166667 	(obj:659951)
lambda#2#25                      -0.00214246168166667 	(obj:0)
lambda#2#26                      -0.00122246168166667 	(obj:0)
lambda#2#27                      -0.00122246168166667 	(obj:669873)
lambda#2#28                      -0.00122246168166667 	(obj:872956)
lambda#2#29                      -0.00122246168166667 	(obj:881490)
lambda#2#30                                  -0.00092 	(obj:834936)
lambda#3#1                       -0.00118036998666667 	(obj:719990)
lambda#3#2                       -0.00118036998666667 	(obj:1765774)
lambda#3#3                       -0.00302036998666667 	(obj:1919156)
lambda#3#4                       -0.00210036998666667 	(obj:0)
lambda#3#5                       -0.00118036998666667 	(obj:0)
lambda#3#6                       -0.00118036998666667 	(obj:2621497)
lambda#3#7                       -0.00118036998666667 	(obj:2259057)
lambda#3#8                       -0.00118036998666667 	(obj:2392690)
lambda#3#9                       -0.00118036998666667 	(obj:3159484)
lambda#3#10                      -0.00302036998666667 	(obj:3902591)
lambda#3#11                      -0.00210036998666667 	(obj:0)
lambda#3#12                      -0.00118036998666667 	(obj:0)
lambda#3#13                      -0.00118036998666667 	(obj:2732318)
lambda#3#14                      -0.00118036998666667 	(obj:1444566)
lambda#3#15                      -0.00118036998666667 	(obj:1323823)
lambda#3#16                      -0.00118036998666667 	(obj:1067933)
lambda#3#17                      -0.00302036998666667 	(obj:1148010)
lambda#3#18                      -0.00210036998666667 	(obj:0)
lambda#3#19                      -0.00118036998666667 	(obj:0)
lambda#3#20                      -0.00118036998666667 	(obj:1170018)
lambda#3#21                      -0.00118036998666667 	(obj:715773)
lambda#3#22                      -0.00118036998666667 	(obj:597594)
lambda#3#23                      -0.00118036998666667 	(obj:575890)
lambda#3#24                      -0.00302036998666667 	(obj:635819)
lambda#3#25                      -0.00210036998666667 	(obj:0)
lambda#3#26                      -0.00118036998666667 	(obj:0)
lambda#3#27                      -0.00118036998666667 	(obj:834990)
lambda#3#28                      -0.00118036998666667 	(obj:696096)
lambda#3#29                      -0.00118036998666667 	(obj:720683)
lambda#3#30                                  -0.00092 	(obj:764307)
mu#1#1                                  0.00128019301 	(obj:0)
mu#1#2                                  0.00128019301 	(obj:0)
mu#1#3                                  0.00128019301 	(obj:0)
mu#1#4                            0.00122246168166667 	(obj:0)
mu#1#5                            0.00118036998666667 	(obj:0)
mu#2#1                                  0.00036019301 	(obj:0)
mu#2#2                                  0.00036019301 	(obj:0)
mu#2#3                                  0.00036019301 	(obj:0)
mu#2#4                           0.000302461681666667 	(obj:0)
mu#2#5                           0.000260369986666667 	(obj:0)
mu#3#1                           0.000498889591666667 	(obj:0)
mu#3#2                           0.000498889591666667 	(obj:0)
mu#3#3                           0.000498889591666667 	(obj:0)
mu#3#4                           0.000302461681666667 	(obj:0)
mu#3#5                           0.000260369986666667 	(obj:0)
mu#4#1                                  0.00220019301 	(obj:0)
mu#4#2                                  0.00220019301 	(obj:0)
mu#4#3                                  0.00220019301 	(obj:0)
mu#4#4                            0.00214246168166667 	(obj:0)
mu#4#5                            0.00210036998666667 	(obj:0)
mu#5#1                                  0.00128019301 	(obj:0)
mu#5#2                                  0.00128019301 	(obj:0)
mu#5#3                                  0.00128019301 	(obj:0)
mu#5#4                            0.00122246168166667 	(obj:0)
mu#5#5                            0.00118036998666667 	(obj:0)
mu#6#1                                  0.00036019301 	(obj:0)
mu#6#2                                  0.00036019301 	(obj:0)
mu#6#3                                  0.00036019301 	(obj:0)
mu#6#4                           0.000302461681666667 	(obj:0)
mu#6#5                           0.000260369986666667 	(obj:0)
mu#7#1                           0.000498889591666667 	(obj:0)
mu#7#2                           0.000498889591666667 	(obj:0)
mu#7#3                           0.000498889591666667 	(obj:0)
mu#7#4                           0.000302461681666667 	(obj:0)
mu#7#5                           0.000260369986666667 	(obj:0)
mu#8#1                           0.000498889591666667 	(obj:0)
mu#8#2                           0.000498889591666667 	(obj:0)
mu#8#3                           0.000498889591666667 	(obj:0)
mu#8#4                           0.000302461681666667 	(obj:0)
mu#8#5                           0.000260369986666667 	(obj:0)
mu#9#1                                  0.00036019301 	(obj:0)
mu#9#2                                  0.00036019301 	(obj:0)
mu#9#3                                  0.00036019301 	(obj:0)
mu#9#4                           0.000302461681666667 	(obj:0)
mu#9#5                           0.000260369986666667 	(obj:0)
mu#10#1                          0.000498889591666667 	(obj:0)
mu#10#2                          0.000498889591666667 	(obj:0)
mu#10#3                          0.000498889591666667 	(obj:0)
mu#10#4                          0.000302461681666667 	(obj:0)
mu#10#5                          0.000260369986666667 	(obj:0)
mu#11#1                                 0.00220019301 	(obj:0)
mu#11#2                                 0.00220019301 	(obj:0)
mu#11#3                                 0.00220019301 	(obj:0)
mu#11#4                           0.00214246168166667 	(obj:0)
mu#11#5                           0.00210036998666667 	(obj:0)
mu#12#1                                 0.00128019301 	(obj:0)
mu#12#2                                 0.00128019301 	(obj:0)
mu#12#3                                 0.00128019301 	(obj:0)
mu#12#4                           0.00122246168166667 	(obj:0)
mu#12#5                           0.00118036998666667 	(obj:0)
mu#13#1                                 0.00036019301 	(obj:0)
mu#13#2                                 0.00036019301 	(obj:0)
mu#13#3                                 0.00036019301 	(obj:0)
mu#13#4                          0.000302461681666667 	(obj:0)
mu#13#5                          0.000260369986666667 	(obj:0)
mu#14#1                          0.000498889591666667 	(obj:0)
mu#14#2                          0.000498889591666667 	(obj:0)
mu#14#3                          0.000498889591666667 	(obj:0)
mu#14#4                          0.000302461681666667 	(obj:0)
mu#14#5                          0.000260369986666667 	(obj:0)
mu#15#1                          0.000498889591666667 	(obj:0)
mu#15#2                          0.000498889591666667 	(obj:0)
mu#15#3                          0.000498889591666667 	(obj:0)
mu#15#4                          0.000302461681666667 	(obj:0)
mu#15#5                          0.000260369986666667 	(obj:0)
mu#16#1                                 0.00036019301 	(obj:0)
mu#16#2                                 0.00036019301 	(obj:0)
mu#16#3                                 0.00036019301 	(obj:0)
mu#16#4                          0.000302461681666667 	(obj:0)
mu#16#5                          0.000260369986666667 	(obj:0)
mu#17#1                          0.000498889591666667 	(obj:0)
mu#17#2                          0.000498889591666667 	(obj:0)
mu#17#3                          0.000498889591666667 	(obj:0)
mu#17#4                          0.000302461681666667 	(obj:0)
mu#17#5                          0.000260369986666667 	(obj:0)
mu#18#1                                 0.00220019301 	(obj:0)
mu#18#2                                 0.00220019301 	(obj:0)
mu#18#3                                 0.00220019301 	(obj:0)
mu#18#4                           0.00214246168166667 	(obj:0)
mu#18#5                           0.00210036998666667 	(obj:0)
mu#19#1                                 0.00128019301 	(obj:0)
mu#19#2                                 0.00128019301 	(obj:0)
mu#19#3                                 0.00128019301 	(obj:0)
mu#19#4                           0.00122246168166667 	(obj:0)
mu#19#5                           0.00118036998666667 	(obj:0)
mu#20#1                                 0.00036019301 	(obj:0)
mu#20#2                                 0.00036019301 	(obj:0)
mu#20#3                                 0.00036019301 	(obj:0)
mu#20#4                          0.000302461681666667 	(obj:0)
mu#20#5                          0.000260369986666667 	(obj:0)
mu#21#1                          0.000498889591666667 	(obj:0)
mu#21#2                          0.000498889591666667 	(obj:0)
mu#21#3                          0.000498889591666667 	(obj:0)
mu#21#4                          0.000302461681666667 	(obj:0)
mu#21#5                          0.000260369986666667 	(obj:0)
mu#22#1                          0.000498889591666667 	(obj:0)
mu#22#2                          0.000498889591666667 	(obj:0)
mu#22#3                          0.000498889591666667 	(obj:0)
mu#22#4                          0.000302461681666667 	(obj:0)
mu#22#5                          0.000260369986666667 	(obj:0)
mu#23#1                                 0.00036019301 	(obj:0)
mu#23#2                                 0.00036019301 	(obj:0)
mu#23#3                                 0.00036019301 	(obj:0)
mu#23#4                          0.000302461681666667 	(obj:0)
mu#23#5                          0.000260369986666667 	(obj:0)
mu#24#1                          0.000498889591666667 	(obj:0)
mu#24#2                          0.000498889591666667 	(obj:0)
mu#24#3                          0.000498889591666667 	(obj:0)
mu#24#4                          0.000302461681666667 	(obj:0)
mu#24#5                          0.000260369986666667 	(obj:0)
mu#25#1                                 0.00220019301 	(obj:0)
mu#25#2                                 0.00220019301 	(obj:0)
mu#25#3                                 0.00220019301 	(obj:0)
mu#25#4                           0.00214246168166667 	(obj:0)
mu#25#5                           0.00210036998666667 	(obj:0)
mu#26#1                                 0.00128019301 	(obj:0)
mu#26#2                                 0.00128019301 	(obj:0)
mu#26#3                                 0.00128019301 	(obj:0)
mu#26#4                           0.00122246168166667 	(obj:0)
mu#26#5                           0.00118036998666667 	(obj:0)
mu#27#1                                 0.00036019301 	(obj:0)
mu#27#2                                 0.00036019301 	(obj:0)
mu#27#3                                 0.00036019301 	(obj:0)
mu#27#4                          0.000302461681666667 	(obj:0)
mu#27#5                          0.000260369986666667 	(obj:0)
mu#28#1                          0.000498889591666667 	(obj:0)
mu#28#2                          0.000498889591666667 	(obj:0)
mu#28#3                          0.000498889591666667 	(obj:0)
mu#28#4                          0.000302461681666667 	(obj:0)
mu#28#5                          0.000260369986666667 	(obj:0)
mu#29#1                          0.000498889591666667 	(obj:0)
mu#29#2                          0.000498889591666667 	(obj:0)
mu#29#3                          0.000498889591666667 	(obj:0)
mu#29#4                          0.000302461681666667 	(obj:0)
mu#29#5                          0.000260369986666667 	(obj:0)
mu#30#1                                 0.00036019301 	(obj:0)
mu#30#2                                 0.00036019301 	(obj:0)
mu#30#3                                 0.00036019301 	(obj:0)
mu#30#4                          0.000302461681666667 	(obj:0)
mu#30#5                          0.000260369986666667 	(obj:0)
nu#1#3                            0.00122246168166667 	(obj:0)
nu#1#4                                  0.00128019301 	(obj:0)
nu#1#5                                  0.00128019301 	(obj:0)
nu#2#3                           0.000302461681666667 	(obj:0)
nu#2#4                                  0.00036019301 	(obj:0)
nu#2#5                                  0.00036019301 	(obj:0)
nu#3#3                           0.000302461681666667 	(obj:0)
nu#3#4                           0.000498889591666667 	(obj:0)
nu#3#5                           0.000498889591666667 	(obj:0)
nu#4#3                            0.00214246168166667 	(obj:0)
nu#4#4                                  0.00220019301 	(obj:0)
nu#4#5                                  0.00220019301 	(obj:0)
nu#5#3                            0.00122246168166667 	(obj:0)
nu#5#4                                  0.00128019301 	(obj:0)
nu#5#5                                  0.00128019301 	(obj:0)
nu#6#3                           0.000302461681666667 	(obj:0)
nu#6#4                                  0.00036019301 	(obj:0)
nu#6#5                                  0.00036019301 	(obj:0)
nu#7#3                           0.000302461681666667 	(obj:0)
nu#7#4                           0.000498889591666667 	(obj:0)
nu#7#5                           0.000498889591666667 	(obj:0)
nu#8#3                           0.000302461681666667 	(obj:0)
nu#8#4                           0.000498889591666667 	(obj:0)
nu#8#5                           0.000498889591666667 	(obj:0)
nu#9#3                           0.000302461681666667 	(obj:0)
nu#9#4                                  0.00036019301 	(obj:0)
nu#9#5                                  0.00036019301 	(obj:0)
nu#10#3                          0.000302461681666667 	(obj:0)
nu#10#4                          0.000498889591666667 	(obj:0)
nu#10#5                          0.000498889591666667 	(obj:0)
nu#11#3                           0.00214246168166667 	(obj:0)
nu#11#4                                 0.00220019301 	(obj:0)
nu#11#5                                 0.00220019301 	(obj:0)
nu#12#3                           0.00122246168166667 	(obj:0)
nu#12#4                                 0.00128019301 	(obj:0)
nu#12#5                                 0.00128019301 	(obj:0)
nu#13#3                          0.000302461681666667 	(obj:0)
nu#13#4                                 0.00036019301 	(obj:0)
nu#13#5                                 0.00036019301 	(obj:0)
nu#14#3                          0.000302461681666667 	(obj:0)
nu#14#4                          0.000498889591666667 	(obj:0)
nu#14#5                          0.000498889591666667 	(obj:0)
nu#15#3                          0.000302461681666667 	(obj:0)
nu#15#4                          0.000498889591666667 	(obj:0)
nu#15#5                          0.000498889591666667 	(obj:0)
nu#16#3                          0.000302461681666667 	(obj:0)
nu#16#4                                 0.00036019301 	(obj:0)
nu#16#5                                 0.00036019301 	(obj:0)
nu#17#3                          0.000302461681666667 	(obj:0)
nu#17#4                          0.000498889591666667 	(obj:0)
nu#17#5                          0.000498889591666667 	(obj:0)
nu#18#3                           0.00214246168166667 	(obj:0)
nu#18#4                                 0.00220019301 	(obj:0)
nu#18#5                                 0.00220019301 	(obj:0)
nu#19#3                           0.00122246168166667 	(obj:0)
nu#19#4                                 0.00128019301 	(obj:0)
nu#19#5                                 0.00128019301 	(obj:0)
nu#20#3                          0.000302461681666667 	(obj:0)
nu#20#4                                 0.00036019301 	(obj:0)
nu#20#5                                 0.00036019301 	(obj:0)
nu#21#3                          0.000302461681666667 	(obj:0)
nu#21#4                          0.000498889591666667 	(obj:0)
nu#21#5                          0.000498889591666667 	(obj:0)
nu#22#3                          0.000302461681666667 	(obj:0)
nu#22#4                          0.000498889591666667 	(obj:0)
nu#22#5                          0.000498889591666667 	(obj:0)
nu#23#3                          0.000302461681666667 	(obj:0)
nu#23#4                                 0.00036019301 	(obj:0)
nu#23#5                                 0.00036019301 	(obj:0)
nu#24#3                          0.000302461681666667 	(obj:0)
nu#24#4                          0.000498889591666667 	(obj:0)
nu#24#5                          0.000498889591666667 	(obj:0)
nu#25#3                           0.00214246168166667 	(obj:0)
nu#25#4                                 0.00220019301 	(obj:0)
nu#25#5                                 0.00220019301 	(obj:0)
nu#26#3                           0.00122246168166667 	(obj:0)
nu#26#4                                 0.00128019301 	(obj:0)
nu#26#5                                 0.00128019301 	(obj:0)
nu#27#3                          0.000302461681666667 	(obj:0)
nu#27#4                                 0.00036019301 	(obj:0)
nu#27#5                                 0.00036019301 	(obj:0)
nu#28#3                          0.000302461681666667 	(obj:0)
nu#28#4                          0.000498889591666667 	(obj:0)
nu#28#5                          0.000498889591666667 	(obj:0)
nu#29#3                          0.000302461681666667 	(obj:0)
nu#29#4                          0.000498889591666667 	(obj:0)
nu#29#5                          0.000498889591666667 	(obj:0)
nu#30#3                          0.000302461681666667 	(obj:0)
nu#30#4                                 0.00036019301 	(obj:0)
nu#30#5                                 0.00036019301 	(obj:0)
eta#1#2                           0.00105869658166667 	(obj:0)
eta#1#3                           0.00262130341833333 	(obj:0)
eta#1#6                           0.00105869658166667 	(obj:0)
eta#1#7                                       0.00092 	(obj:0)
eta#1#8                          0.000781303418333333 	(obj:0)
eta#1#9                           0.00105869658166667 	(obj:0)
eta#1#10                          0.00262130341833333 	(obj:0)
eta#1#13                          0.00105869658166667 	(obj:0)
eta#1#14                                      0.00092 	(obj:0)
eta#1#15                         0.000781303418333333 	(obj:0)
eta#1#16                          0.00105869658166667 	(obj:0)
eta#1#17                          0.00262130341833333 	(obj:0)
eta#1#20                          0.00105869658166667 	(obj:0)
eta#1#21                                      0.00092 	(obj:0)
eta#1#22                         0.000781303418333333 	(obj:0)
eta#1#23                          0.00105869658166667 	(obj:0)
eta#1#24                          0.00262130341833333 	(obj:0)
eta#1#27                          0.00105869658166667 	(obj:0)
eta#1#28                                      0.00092 	(obj:0)
eta#1#29                         0.000781303418333333 	(obj:0)
eta#1#30                                0.00055980699 	(obj:0)
eta#2#2                                       0.00092 	(obj:0)
eta#2#3                                       0.00276 	(obj:0)
eta#2#6                                       0.00092 	(obj:0)
eta#2#7                                       0.00092 	(obj:0)
eta#2#8                                       0.00092 	(obj:0)
eta#2#9                                       0.00092 	(obj:0)
eta#2#10                                      0.00276 	(obj:0)
eta#2#13                                      0.00092 	(obj:0)
eta#2#14                                      0.00092 	(obj:0)
eta#2#15                                      0.00092 	(obj:0)
eta#2#16                                      0.00092 	(obj:0)
eta#2#17                                      0.00276 	(obj:0)
eta#2#20                                      0.00092 	(obj:0)
eta#2#21                                      0.00092 	(obj:0)
eta#2#22                                      0.00092 	(obj:0)
eta#2#23                                      0.00092 	(obj:0)
eta#2#24                                      0.00276 	(obj:0)
eta#2#27                                      0.00092 	(obj:0)
eta#2#28                                      0.00092 	(obj:0)
eta#2#29                                      0.00092 	(obj:0)
eta#2#30                         0.000617538318333333 	(obj:0)
eta#3#2                                       0.00092 	(obj:0)
eta#3#3                                       0.00276 	(obj:0)
eta#3#6                                       0.00092 	(obj:0)
eta#3#7                                       0.00092 	(obj:0)
eta#3#8                                       0.00092 	(obj:0)
eta#3#9                                       0.00092 	(obj:0)
eta#3#10                                      0.00276 	(obj:0)
eta#3#13                                      0.00092 	(obj:0)
eta#3#14                                      0.00092 	(obj:0)
eta#3#15                                      0.00092 	(obj:0)
eta#3#16                                      0.00092 	(obj:0)
eta#3#17                                      0.00276 	(obj:0)
eta#3#20                                      0.00092 	(obj:0)
eta#3#21                                      0.00092 	(obj:0)
eta#3#22                                      0.00092 	(obj:0)
eta#3#23                                      0.00092 	(obj:0)
eta#3#24                                      0.00276 	(obj:0)
eta#3#27                                      0.00092 	(obj:0)
eta#3#28                                      0.00092 	(obj:0)
eta#3#29                                      0.00092 	(obj:0)
eta#3#30                         0.000659630013333333 	(obj:0)
